40
1 0 3
2 0 1
2 1 1
3 0 12
3 2 1
4 2 10
4 3 3
5 0 6
5 1 14
5 2 3
5 4 9
6 4 9
7 0 10
7 4 13
7 5 5
7 6 3
8 0 12
8 1 6
8 2 13
8 3 8
8 4 6
8 6 3
9 2 9
9 4 3
9 5 6
9 7 6
9 8 14
10 3 9
10 4 9
10 8 11
10 9 6
11 0 3
11 1 9
11 2 3
11 3 10
11 4 3
11 5 12
11 6 11
11 7 14
11 10 1
12 2 9
12 8 11
13 0 6
13 1 11
13 2 9
13 5 9
14 1 9
14 2 2
14 3 3
14 4 11
14 5 14
14 6 7
14 7 13
14 8 14
14 10 6
14 11 6
15 2 2
15 5 11
15 6 8
15 8 14
15 9 7
15 11 7
15 13 5
16 4 5
16 5 9
16 11 3
16 15 12
17 0 1
17 2 11
17 7 8
17 8 5
17 9 1
17 11 8
17 14 2
17 16 10
18 0 10
18 1 10
18 2 5
18 3 13
18 4 13
18 6 12
18 7 1
18 8 8
18 9 6
18 17 6
19 1 7
19 4 13
19 6 13
19 8 9
19 10 9
19 11 8
19 14 8
19 17 4
19 18 10
20 1 3
20 3 4
20 5 7
20 6 13
20 7 6
20 8 13
20 9 8
20 10 12
20 11 4
20 12 5
20 13 11
20 16 12
20 17 14
20 18 8
21 0 13
21 1 2
21 2 11
21 3 8
21 4 12
21 6 9
21 8 14
21 11 3
21 14 9
21 16 6
21 17 6
21 18 2
22 0 3
22 1 12
22 4 4
22 6 7
22 8 11
22 9 3
22 11 2
22 12 8
22 16 7
22 17 10
22 18 7
22 19 6
22 21 13
23 2 6
23 3 4
23 4 14
23 5 10
23 6 2
23 12 8
23 13 2
23 15 5
23 16 7
23 17 7
23 19 8
23 20 14
24 0 13
24 1 10
24 3 4
24 5 4
24 9 6
24 11 5
24 12 6
24 13 3
24 14 10
24 16 10
24 18 8
24 20 10
24 21 14
25 2 4
25 7 5
25 8 8
25 9 13
25 11 6
25 12 1
25 17 12
25 18 14
25 19 3
25 20 11
25 21 9
25 23 12
26 0 7
26 2 11
26 3 12
26 6 6
26 7 8
26 8 3
26 11 14
26 13 3
26 17 8
26 19 1
26 20 6
26 21 8
26 25 7
27 4 12
27 6 13
27 7 2
27 8 5
27 11 9
27 12 7
27 13 11
27 14 3
27 15 3
27 16 1
27 17 12
27 20 1
27 22 3
27 24 12
27 25 13
28 3 14
28 6 2
28 7 2
28 10 4
28 11 13
28 12 4
28 13 11
28 19 5
28 20 7
28 22 11
28 23 2
28 25 1
28 26 4
29 0 6
29 1 9
29 4 12
29 5 4
29 6 9
29 7 8
29 8 11
29 9 5
29 12 8
29 13 6
29 15 6
29 17 9
29 18 8
29 19 5
29 21 13
29 22 7
29 23 2
29 24 6
29 26 11
30 2 6
30 4 12
30 6 14
30 7 13
30 12 5
30 16 6
30 17 5
30 18 8
30 20 12
30 22 2
30 24 7
30 25 4
30 27 11
30 28 7
31 2 9
31 5 7
31 7 8
31 8 6
31 9 13
31 10 3
31 11 11
31 13 3
31 16 9
31 17 2
31 19 11
31 21 1
31 23 9
31 26 6
31 27 9
31 29 1
31 30 1
32 0 14
32 3 5
32 6 8
32 7 3
32 8 9
32 9 6
32 10 3
32 11 2
32 13 3
32 14 6
32 17 13
32 18 5
32 20 12
32 21 5
32 24 6
32 26 3
32 27 2
32 28 4
32 29 8
32 31 1
33 0 13
33 1 14
33 4 7
33 8 10
33 9 5
33 11 5
33 14 2
33 15 5
33 18 9
33 19 13
33 20 8
33 25 11
33 27 6
33 29 3
33 30 8
33 31 9
33 32 8
34 2 12
34 9 4
34 10 4
34 11 2
34 14 7
34 18 1
34 23 11
34 24 7
34 27 1
34 28 4
34 30 9
34 32 10
34 33 7
35 0 10
35 4 7
35 6 12
35 8 5
35 10 4
35 11 1
35 12 13
35 16 5
35 17 8
35 19 8
35 21 8
35 25 14
35 26 4
35 27 7
35 31 13
36 3 7
36 9 11
36 11 12
36 14 1
36 16 13
36 20 12
36 22 6
36 24 13
36 25 11
36 28 1
36 31 10
36 32 9
36 34 4
37 3 1
37 6 8
37 9 5
37 11 1
37 12 13
37 13 4
37 18 11
37 20 10
37 21 9
37 22 14
37 23 3
37 24 5
37 28 6
37 30 14
37 31 9
37 32 4
37 34 7
37 36 6
38 0 11
38 4 4
38 6 9
38 9 2
38 11 12
38 12 13
38 20 14
38 26 12
38 29 10
38 30 11
38 31 3
38 35 6
38 36 8
38 37 5
39 0 14
39 2 9
39 4 6
39 6 6
39 8 11
39 18 12
39 19 1
39 21 12
39 26 14
39 28 3
39 29 10
39 31 2
39 33 12
39 37 6
39 38 7
